maximize
OBJ:100x0 + 100x1 + 100x2 + 100x3 + 100x4 + 100x5 + 100x6 + 100x7 + 100x8 + 100x9 + 100x10 + 100x11 + 100x12 + 100x13 + 100x14 + 100x15 + 100x16 + 100x17 + 100x18 + 100x19 + 100x20 + 100x21 + 100x22 + 100x23 + 100x24 + 100x25 + 100x26 + 100x27 + 100x28 + 100x29 + 100x30 + 100x31 + 100x32 + 100x33 + 100x34 + 100x35 + 100x36 + 100x37 + 100x38 + 100x39 + 100x40 + 100x41 + 100x42 + 100x43 + 100x44 + 100x45 + 100x46 + 100x47 + 100x48 + 100x49 + 100x50 + 100x51 + 100x52 + 100x53 + 100x54 + 100x55 + 100x56 + 100x57 + 100x58 + 100x59 + 100x60 + 100x61 + 100x62 + 100x63 + 100x64 - y15_21 - y36_53 - y18_26 - y17_58 - y18_35 - y18_44 - y0_5 - y29_41 - y0_23 - y29_59 - y10_27 - y10_36 - y33_38 - y2_32 - y44_47 - y2_50 - y14_15 - y51_64 - y32_60 - y15_16 - y55_61 - y17_44 - y28_53 - y18_30 - y17_62 - y28_62 - y29_45 - y40_45 - y40_63 - y21_59 - y25_29 - y33_42 - y10_49 - y25_47 - y3_10 - y43_64 - y35_60 - y3_37 - y14_37 - y7_16 - y36_52 - y47_52 - y28_48 - y5_55 - y6_38 - y29_40 - y48_53 - y29_49 - y6_56 - y21_54 - y2_13 - y39_62 - y2_22 - y33_37 - y2_31 - y25_33 - y35_46 - y14_23 - y14_32 - y13_64 - y28_34 - y7_11 - y6_15 - y17_61 - y9_57 - y50_58 - y6_33 - y21_40 - y6_51 - y10_21 - y20_62 - y25_28 - y12_58 - y23_58 - y3_9 - y43_45 - y13_41 - y35_41 - y14_18 - y43_54 - y1_48 - y24_50 - y13_59 - y17_29 - y28_29 - y36_42 - y36_51 - y47_51 - y17_47 - y6_10 - y6_19 - y9_52 - y21_26 - y27_60 - y61_62 - y6_46 - y39_43 - y2_3 - y31_48 - y39_61 - y12_44 - y2_30 - y24_27 - y16_32 - y13_45 - y24_45 - y32_58 - y43_58 - y24_54 - y1_61 - y35_63 - y9_11 - y57_60 - y36_37 - y9_20 - y28_33 - y28_42 - y5_49 - y6_14 - y9_47 - y6_23 - y42_44 - y27_55 - y8_51 - y27_64 - y19_60 - y12_39 - y2_16 - y31_52 - y54_63 - y4_44 - y1_29 - y13_31 - y13_40 - y24_40 - y43_53 - y16_36 - y5_8 - y1_56 - y35_58 - y16_54 - y5_17 - y38_51 - y5_35 - y17_37 - y9_33 - y6_9 - y27_50 - y50_52 - y8_46 - y30_46 - y42_48 - y0_51 - y19_64 - y39_42 - y20_38 - y31_38 - y12_34 - y23_34 - y39_60 - y12_43 - y23_61 - y13_35 - y16_31 - y1_42 - y35_44 - y5_21 - y46_59 - y49_55 - y26_62 - y5_39 - y30_41 - y42_43 - y30_50 - y0_46 - y11_55 - y20_33 - y0_64 - y12_29 - y23_29 - y20_51 - y31_51 - y23_56 - y34_53 - y13_30 - y4_61 - y22_60 - y45_62 - y16_35 - y1_46 - y46_54 - y9_14 - y15_48 - y38_50 - y46_63 - y49_59 - y27_31 - y18_62 - y8_27 - y19_27 - y27_40 - y8_36 - y50_51 - y0_32 - y27_58 - y8_54 - y19_54 - y30_54 - y0_50 - y12_15 - y20_28 - y39_41 - y23_24 - y52_60 - y4_29 - y1_5 - y4_47 - y37_44 - y37_53 - y22_64 - y3_60 - y37_62 - y26_34 - y26_43 - y15_61 - y8_22 - y27_35 - y19_40 - y30_49 - y20_23 - y0_54 - y41_55 - y33_51 - y23_37 - y4_33 - y37_39 - y22_50 - y14_46 - y45_61 - y3_55 - y37_57 - y15_38 - y38_40 - y7_34 - y15_47 - y18_43 - y26_56 - y0_13 - y11_13 - y27_39 - y19_35 - y0_31 - y30_44 - y21_63 - y41_50 - y4_10 - y41_59 - y44_64 - y25_60 - y22_36 - y34_38 - y34_47 - y3_41 - y37_43 - y34_56 - y3_50 - y14_50 - y3_59 - y14_59 - y15_24 - y7_20 - y18_29 - y29_53 - y40_53 - y40_62 - y11_35 - y41_54 - y10_57 - y33_59 - y22_31 - y14_27 - y22_40 - y34_51 - y45_51 - y37_47 - y22_58 - y14_54 - y7_15 - y59_62 - y15_37 - y26_37 - y18_42 - y0_12 - y19_25 - y21_44 - y6_64 - y33_45 - y41_58 - y52_58 - y33_54 - y3_13 - y10_61 - y33_63 - y44_63 - y14_22 - y22_35 - y22_44 - y3_40 - y37_42 - y3_49 - y7_10 - y18_19 - y36_64 - y17_60 - y9_56 - y40_43 - y48_56 - y0_16 - y11_16 - y40_52 - y21_48 - y6_59 - y29_61 - y33_40 - y10_47 - y2_52 - y3_17 - y14_17 - y22_30 - y32_53 - y2_61 - y3_26 - y22_39 - y13_58 - y24_58 - y36_41 - y7_14 - y59_61 - y28_55 - y9_51 - y5_62 - y9_60 - y6_54 - y21_52 - y21_61 - y10_24 - y25_40 - y22_25 - y3_21 - y32_57 - y35_53 - y24_62 - y35_62 - y17_32 - y7_9 - y36_45 - y55_58 - y9_37 - y28_50 - y9_46 - y5_57 - y29_33 - y6_58 - y10_19 - y39_55 - y10_28 - y20_60 - y10_37 - y2_42 - y3_7 - y13_39 - y24_39 - y3_16 - y32_52 - y13_48 - y3_25 - y14_25 - y32_61 - y43_61 - y16_53 - y17_18 - y1_64 - y16_62 - y17_36 - y5_43 - y17_45 - y36_58 - y9_41 - y6_17 - y5_61 - y9_59 - y6_35 - y21_42 - y39_59 - y10_32 - y23_51 - y2_28 - y20_64 - y12_60 - y13_25 - y43_47 - y13_43 - y24_43 - y43_56 - y16_39 - y35_52 - y16_57 - y5_20 - y5_47 - y58_59 - y9_54 - y6_30 - y21_28 - y27_62 - y50_64 - y19_58 - y20_41 - y31_50 - y20_59 - y13_20 - y23_64 - y1_27 - y51_55 - y24_38 - y32_51 - y1_45 - y13_47 - y24_47 - y1_54 - y35_56 - y46_53 - y1_63 - y9_13 - y36_39 - y49_58 - y5_33 - y17_35 - y9_31 - y5_51 - y19_62 - y0_58 - y11_58 - y20_36 - y31_36 - y10_13 - y12_32 - y31_45 - y39_58 - y23_41 - y12_50 - y4_46 - y12_59 - y13_33 - y4_64 - y32_46 - y1_40 - y13_42 - y24_51 - y1_58 - y38_44 - y28_30 - y9_26 - y15_60 - y5_37 - y38_62 - y49_62 - y27_34 - y30_39 - y50_63 - y0_44 - y30_57 - y20_40 - y4_23 - y20_58 - y31_58 - y12_54 - y23_63 - y1_26 - y13_37 - y24_37 - y16_33 - y9_12 - y49_57 - y26_64 - y18_60 - y27_47 - y27_56 - y11_39 - y42_54 - y4_27 - y12_40 - y13_14 - y34_46 - y45_46 - y45_55 - y16_28 - y22_62 - y1_39 - y46_47 - y26_41 - y9_16 - y26_50 - y15_59 - y26_59 - y38_61 - y7_55 - y19_20 - y7_64 - y19_29 - y8_38 - y19_38 - y11_34 - y8_47 - y8_56 - y20_21 - y11_61 - y52_62 - y23_44 - y1_7 - y25_63 - y4_40 - y1_25 - y45_59 - y3_53 - y3_62 - y26_27 - y37_64 - y26_36 - y15_45 - y15_54 - y7_50 - y8_15 - y18_50 - y18_59 - y19_24 - y48_60 - y27_46 - y0_29 - y30_42 - y0_38 - y4_8 - y12_21 - y12_30 - y25_49 - y25_58 - y22_34 - y1_11 - y1_20 - y37_41 - y34_54 - y37_50 - y34_63 - y14_57 - y7_36 - y18_36 - y7_45 - y8_10 - y18_45 - y0_6 - y7_54 - y27_32 - y11_15 - y29_60 - y8_37 - y30_37 - y0_33 - y11_33 - y41_52 - y25_44 - y4_21 - y25_53 - y1_6 - y25_62 - y45_49 - y3_43 - y14_43 - y3_52 - y14_52 - y3_61 - y14_61 - y55_62 - y7_22 - y26_35 - y18_31 - y18_40 - y19_23 - y6_53 - y11_19 - y29_55 - y21_51 - y0_28 - y11_28 - y33_34 - y25_30 - y10_41 - y10_50 - y25_48 - y22_24 - y25_57 - y3_20 - y22_33 - y14_29 - y14_38 - y37_49
 Subject to
C1: x0+x5-y0_5 <=1 
C2: x0+x6-y0_6 <=1 
C3: x0+x11 <=1 
C4: x0+x12-y0_12 <=1 
C5: x0+x13-y0_13 <=1 
C6: x0+x14 <=1 
C7: x0+x15 <=1 
C8: x0+x16-y0_16 <=1 
C9: x0+x17 <=1 
C10: x0+x19 <=1 
C11: x0+x22 <=1 
C12: x0+x23-y0_23 <=1 
C13: x0+x24 <=1 
C14: x0+x27 <=1 
C15: x0+x28-y0_28 <=1 
C16: x0+x29-y0_29 <=1 
C17: x0+x31-y0_31 <=1 
C18: x0+x32-y0_32 <=1 
C19: x0+x33-y0_33 <=1 
C20: x0+x36 <=1 
C21: x0+x38-y0_38 <=1 
C22: x0+x40 <=1 
C23: x0+x41 <=1 
C24: x0+x44-y0_44 <=1 
C25: x0+x45 <=1 
C26: x0+x46-y0_46 <=1 
C27: x0+x49 <=1 
C28: x0+x50-y0_50 <=1 
C29: x0+x51-y0_51 <=1 
C30: x0+x52 <=1 
C31: x0+x54-y0_54 <=1 
C32: x0+x56 <=1 
C33: x0+x57 <=1 
C34: x0+x58-y0_58 <=1 
C35: x0+x59 <=1 
C36: x0+x60 <=1 
C37: x0+x62 <=1 
C38: x0+x64-y0_64 <=1 
C39: x1+x3 <=1 
C40: x1+x4 <=1 
C41: x1+x5-y1_5 <=1 
C42: x1+x6-y1_6 <=1 
C43: x1+x7-y1_7 <=1 
C44: x1+x8 <=1 
C45: x1+x10 <=1 
C46: x1+x11-y1_11 <=1 
C47: x1+x14 <=1 
C48: x1+x15 <=1 
C49: x1+x18 <=1 
C50: x1+x20-y1_20 <=1 
C51: x1+x21 <=1 
C52: x1+x22 <=1 
C53: x1+x25-y1_25 <=1 
C54: x1+x26-y1_26 <=1 
C55: x1+x27-y1_27 <=1 
C56: x1+x28 <=1 
C57: x1+x29-y1_29 <=1 
C58: x1+x36 <=1 
C59: x1+x37 <=1 
C60: x1+x39-y1_39 <=1 
C61: x1+x40-y1_40 <=1 
C62: x1+x42-y1_42 <=1 
C63: x1+x44 <=1 
C64: x1+x45-y1_45 <=1 
C65: x1+x46-y1_46 <=1 
C66: x1+x47 <=1 
C67: x1+x48-y1_48 <=1 
C68: x1+x49 <=1 
C69: x1+x51 <=1 
C70: x1+x53 <=1 
C71: x1+x54-y1_54 <=1 
C72: x1+x56-y1_56 <=1 
C73: x1+x58-y1_58 <=1 
C74: x1+x60 <=1 
C75: x1+x61-y1_61 <=1 
C76: x1+x63-y1_63 <=1 
C77: x1+x64-y1_64 <=1 
C78: x2+x3-y2_3 <=1 
C79: x2+x4 <=1 
C80: x2+x5 <=1 
C81: x2+x7 <=1 
C82: x2+x11 <=1 
C83: x2+x13-y2_13 <=1 
C84: x2+x16-y2_16 <=1 
C85: x2+x17 <=1 
C86: x2+x21 <=1 
C87: x2+x22-y2_22 <=1 
C88: x2+x26 <=1 
C89: x2+x27 <=1 
C90: x2+x28-y2_28 <=1 
C91: x2+x30-y2_30 <=1 
C92: x2+x31-y2_31 <=1 
C93: x2+x32-y2_32 <=1 
C94: x2+x33 <=1 
C95: x2+x37 <=1 
C96: x2+x39 <=1 
C97: x2+x40 <=1 
C98: x2+x42-y2_42 <=1 
C99: x2+x43 <=1 
C100: x2+x45 <=1 
C101: x2+x47 <=1 
C102: x2+x49 <=1 
C103: x2+x50-y2_50 <=1 
C104: x2+x52-y2_52 <=1 
C105: x2+x53 <=1 
C106: x2+x57 <=1 
C107: x2+x58 <=1 
C108: x2+x60 <=1 
C109: x2+x61-y2_61 <=1 
C110: x2+x62 <=1 
C111: x2+x63 <=1 
C112: x3+x7-y3_7 <=1 
C113: x3+x9-y3_9 <=1 
C114: x3+x10-y3_10 <=1 
C115: x3+x11 <=1 
C116: x3+x13-y3_13 <=1 
C117: x3+x15 <=1 
C118: x3+x16-y3_16 <=1 
C119: x3+x17-y3_17 <=1 
C120: x3+x18 <=1 
C121: x3+x19 <=1 
C122: x3+x20-y3_20 <=1 
C123: x3+x21-y3_21 <=1 
C124: x3+x23 <=1 
C125: x3+x24 <=1 
C126: x3+x25-y3_25 <=1 
C127: x3+x26-y3_26 <=1 
C128: x3+x27 <=1 
C129: x3+x28 <=1 
C130: x3+x32 <=1 
C131: x3+x33 <=1 
C132: x3+x34 <=1 
C133: x3+x37-y3_37 <=1 
C134: x3+x39 <=1 
C135: x3+x40-y3_40 <=1 
C136: x3+x41-y3_41 <=1 
C137: x3+x43-y3_43 <=1 
C138: x3+x45 <=1 
C139: x3+x46 <=1 
C140: x3+x47 <=1 
C141: x3+x48 <=1 
C142: x3+x49-y3_49 <=1 
C143: x3+x50-y3_50 <=1 
C144: x3+x51 <=1 
C145: x3+x52-y3_52 <=1 
C146: x3+x53-y3_53 <=1 
C147: x3+x54 <=1 
C148: x3+x55-y3_55 <=1 
C149: x3+x58 <=1 
C150: x3+x59-y3_59 <=1 
C151: x3+x60-y3_60 <=1 
C152: x3+x61-y3_61 <=1 
C153: x3+x62-y3_62 <=1 
C154: x4+x5 <=1 
C155: x4+x8-y4_8 <=1 
C156: x4+x10-y4_10 <=1 
C157: x4+x11 <=1 
C158: x4+x12 <=1 
C159: x4+x13 <=1 
C160: x4+x15 <=1 
C161: x4+x16 <=1 
C162: x4+x18 <=1 
C163: x4+x19 <=1 
C164: x4+x20 <=1 
C165: x4+x21-y4_21 <=1 
C166: x4+x22 <=1 
C167: x4+x23-y4_23 <=1 
C168: x4+x25 <=1 
C169: x4+x27-y4_27 <=1 
C170: x4+x29-y4_29 <=1 
C171: x4+x30 <=1 
C172: x4+x31 <=1 
C173: x4+x33-y4_33 <=1 
C174: x4+x34 <=1 
C175: x4+x35 <=1 
C176: x4+x36 <=1 
C177: x4+x37 <=1 
C178: x4+x40-y4_40 <=1 
C179: x4+x41 <=1 
C180: x4+x42 <=1 
C181: x4+x44-y4_44 <=1 
C182: x4+x46-y4_46 <=1 
C183: x4+x47-y4_47 <=1 
C184: x4+x48 <=1 
C185: x4+x51 <=1 
C186: x4+x53 <=1 
C187: x4+x54 <=1 
C188: x4+x57 <=1 
C189: x4+x58 <=1 
C190: x4+x61-y4_61 <=1 
C191: x4+x62 <=1 
C192: x4+x64-y4_64 <=1 
C193: x5+x8-y5_8 <=1 
C194: x5+x9 <=1 
C195: x5+x12 <=1 
C196: x5+x13 <=1 
C197: x5+x15 <=1 
C198: x5+x16 <=1 
C199: x5+x17-y5_17 <=1 
C200: x5+x20-y5_20 <=1 
C201: x5+x21-y5_21 <=1 
C202: x5+x22 <=1 
C203: x5+x23 <=1 
C204: x5+x25 <=1 
C205: x5+x29 <=1 
C206: x5+x32 <=1 
C207: x5+x33-y5_33 <=1 
C208: x5+x35-y5_35 <=1 
C209: x5+x36 <=1 
C210: x5+x37-y5_37 <=1 
C211: x5+x39-y5_39 <=1 
C212: x5+x42 <=1 
C213: x5+x43-y5_43 <=1 
C214: x5+x46 <=1 
C215: x5+x47-y5_47 <=1 
C216: x5+x48 <=1 
C217: x5+x49-y5_49 <=1 
C218: x5+x51-y5_51 <=1 
C219: x5+x53 <=1 
C220: x5+x55-y5_55 <=1 
C221: x5+x57-y5_57 <=1 
C222: x5+x59 <=1 
C223: x5+x61-y5_61 <=1 
C224: x5+x62-y5_62 <=1 
C225: x5+x63 <=1 
C226: x5+x64 <=1 
C227: x6+x8 <=1 
C228: x6+x9-y6_9 <=1 
C229: x6+x10-y6_10 <=1 
C230: x6+x11 <=1 
C231: x6+x12 <=1 
C232: x6+x14-y6_14 <=1 
C233: x6+x15-y6_15 <=1 
C234: x6+x17-y6_17 <=1 
C235: x6+x19-y6_19 <=1 
C236: x6+x21 <=1 
C237: x6+x22 <=1 
C238: x6+x23-y6_23 <=1 
C239: x6+x26 <=1 
C240: x6+x28 <=1 
C241: x6+x29 <=1 
C242: x6+x30-y6_30 <=1 
C243: x6+x32 <=1 
C244: x6+x33-y6_33 <=1 
C245: x6+x35-y6_35 <=1 
C246: x6+x36 <=1 
C247: x6+x38-y6_38 <=1 
C248: x6+x46-y6_46 <=1 
C249: x6+x50 <=1 
C250: x6+x51-y6_51 <=1 
C251: x6+x53-y6_53 <=1 
C252: x6+x54-y6_54 <=1 
C253: x6+x56-y6_56 <=1 
C254: x6+x57 <=1 
C255: x6+x58-y6_58 <=1 
C256: x6+x59-y6_59 <=1 
C257: x6+x62 <=1 
C258: x6+x64-y6_64 <=1 
C259: x7+x8 <=1 
C260: x7+x9-y7_9 <=1 
C261: x7+x10-y7_10 <=1 
C262: x7+x11-y7_11 <=1 
C263: x7+x12 <=1 
C264: x7+x14-y7_14 <=1 
C265: x7+x15-y7_15 <=1 
C266: x7+x16-y7_16 <=1 
C267: x7+x17 <=1 
C268: x7+x20-y7_20 <=1 
C269: x7+x22-y7_22 <=1 
C270: x7+x23 <=1 
C271: x7+x24 <=1 
C272: x7+x25 <=1 
C273: x7+x27 <=1 
C274: x7+x31 <=1 
C275: x7+x33 <=1 
C276: x7+x34-y7_34 <=1 
C277: x7+x35 <=1 
C278: x7+x36-y7_36 <=1 
C279: x7+x38 <=1 
C280: x7+x41 <=1 
C281: x7+x43 <=1 
C282: x7+x44 <=1 
C283: x7+x45-y7_45 <=1 
C284: x7+x46 <=1 
C285: x7+x47 <=1 
C286: x7+x50-y7_50 <=1 
C287: x7+x54-y7_54 <=1 
C288: x7+x55-y7_55 <=1 
C289: x7+x57 <=1 
C290: x7+x59 <=1 
C291: x7+x62 <=1 
C292: x7+x64-y7_64 <=1 
C293: x8+x9 <=1 
C294: x8+x10-y8_10 <=1 
C295: x8+x12 <=1 
C296: x8+x14 <=1 
C297: x8+x15-y8_15 <=1 
C298: x8+x17 <=1 
C299: x8+x20 <=1 
C300: x8+x22-y8_22 <=1 
C301: x8+x27-y8_27 <=1 
C302: x8+x32 <=1 
C303: x8+x36-y8_36 <=1 
C304: x8+x37-y8_37 <=1 
C305: x8+x38-y8_38 <=1 
C306: x8+x40 <=1 
C307: x8+x46-y8_46 <=1 
C308: x8+x47-y8_47 <=1 
C309: x8+x48 <=1 
C310: x8+x50 <=1 
C311: x8+x51-y8_51 <=1 
C312: x8+x52 <=1 
C313: x8+x53 <=1 
C314: x8+x54-y8_54 <=1 
C315: x8+x55 <=1 
C316: x8+x56-y8_56 <=1 
C317: x8+x57 <=1 
C318: x8+x60 <=1 
C319: x8+x61 <=1 
C320: x9+x11-y9_11 <=1 
C321: x9+x12-y9_12 <=1 
C322: x9+x13-y9_13 <=1 
C323: x9+x14-y9_14 <=1 
C324: x9+x15 <=1 
C325: x9+x16-y9_16 <=1 
C326: x9+x17 <=1 
C327: x9+x20-y9_20 <=1 
C328: x9+x21 <=1 
C329: x9+x23 <=1 
C330: x9+x25 <=1 
C331: x9+x26-y9_26 <=1 
C332: x9+x28 <=1 
C333: x9+x30 <=1 
C334: x9+x31-y9_31 <=1 
C335: x9+x33-y9_33 <=1 
C336: x9+x35 <=1 
C337: x9+x36 <=1 
C338: x9+x37-y9_37 <=1 
C339: x9+x38 <=1 
C340: x9+x40 <=1 
C341: x9+x41-y9_41 <=1 
C342: x9+x46-y9_46 <=1 
C343: x9+x47-y9_47 <=1 
C344: x9+x48 <=1 
C345: x9+x51-y9_51 <=1 
C346: x9+x52-y9_52 <=1 
C347: x9+x54-y9_54 <=1 
C348: x9+x55 <=1 
C349: x9+x56-y9_56 <=1 
C350: x9+x57-y9_57 <=1 
C351: x9+x59-y9_59 <=1 
C352: x9+x60-y9_60 <=1 
C353: x9+x61 <=1 
C354: x9+x62 <=1 
C355: x9+x64 <=1 
C356: x10+x11 <=1 
C357: x10+x13-y10_13 <=1 
C358: x10+x17 <=1 
C359: x10+x18 <=1 
C360: x10+x19-y10_19 <=1 
C361: x10+x21-y10_21 <=1 
C362: x10+x23 <=1 
C363: x10+x24-y10_24 <=1 
C364: x10+x25 <=1 
C365: x10+x27-y10_27 <=1 
C366: x10+x28-y10_28 <=1 
C367: x10+x29 <=1 
C368: x10+x30 <=1 
C369: x10+x32-y10_32 <=1 
C370: x10+x36-y10_36 <=1 
C371: x10+x37-y10_37 <=1 
C372: x10+x40 <=1 
C373: x10+x41-y10_41 <=1 
C374: x10+x43 <=1 
C375: x10+x44 <=1 
C376: x10+x45 <=1 
C377: x10+x46 <=1 
C378: x10+x47-y10_47 <=1 
C379: x10+x49-y10_49 <=1 
C380: x10+x50-y10_50 <=1 
C381: x10+x51 <=1 
C382: x10+x54 <=1 
C383: x10+x55 <=1 
C384: x10+x56 <=1 
C385: x10+x57-y10_57 <=1 
C386: x10+x59 <=1 
C387: x10+x60 <=1 
C388: x10+x61-y10_61 <=1 
C389: x10+x62 <=1 
C390: x10+x64 <=1 
C391: x11+x13-y11_13 <=1 
C392: x11+x15-y11_15 <=1 
C393: x11+x16-y11_16 <=1 
C394: x11+x17 <=1 
C395: x11+x19-y11_19 <=1 
C396: x11+x20 <=1 
C397: x11+x23 <=1 
C398: x11+x26 <=1 
C399: x11+x28-y11_28 <=1 
C400: x11+x29 <=1 
C401: x11+x30 <=1 
C402: x11+x33-y11_33 <=1 
C403: x11+x34-y11_34 <=1 
C404: x11+x35-y11_35 <=1 
C405: x11+x36 <=1 
C406: x11+x37 <=1 
C407: x11+x38 <=1 
C408: x11+x39-y11_39 <=1 
C409: x11+x40 <=1 
C410: x11+x46 <=1 
C411: x11+x48 <=1 
C412: x11+x49 <=1 
C413: x11+x51 <=1 
C414: x11+x55-y11_55 <=1 
C415: x11+x58-y11_58 <=1 
C416: x11+x59 <=1 
C417: x11+x61-y11_61 <=1 
C418: x11+x63 <=1 
C419: x11+x64 <=1 
C420: x12+x15-y12_15 <=1 
C421: x12+x16 <=1 
C422: x12+x19 <=1 
C423: x12+x21-y12_21 <=1 
C424: x12+x22 <=1 
C425: x12+x24 <=1 
C426: x12+x25 <=1 
C427: x12+x29-y12_29 <=1 
C428: x12+x30-y12_30 <=1 
C429: x12+x32-y12_32 <=1 
C430: x12+x33 <=1 
C431: x12+x34-y12_34 <=1 
C432: x12+x35 <=1 
C433: x12+x36 <=1 
C434: x12+x39-y12_39 <=1 
C435: x12+x40-y12_40 <=1 
C436: x12+x41 <=1 
C437: x12+x42 <=1 
C438: x12+x43-y12_43 <=1 
C439: x12+x44-y12_44 <=1 
C440: x12+x50-y12_50 <=1 
C441: x12+x52 <=1 
C442: x12+x53 <=1 
C443: x12+x54-y12_54 <=1 
C444: x12+x56 <=1 
C445: x12+x58-y12_58 <=1 
C446: x12+x59-y12_59 <=1 
C447: x12+x60-y12_60 <=1 
C448: x12+x61 <=1 
C449: x12+x62 <=1 
C450: x13+x14-y13_14 <=1 
C451: x13+x20-y13_20 <=1 
C452: x13+x23 <=1 
C453: x13+x25-y13_25 <=1 
C454: x13+x26 <=1 
C455: x13+x27 <=1 
C456: x13+x30-y13_30 <=1 
C457: x13+x31-y13_31 <=1 
C458: x13+x33-y13_33 <=1 
C459: x13+x35-y13_35 <=1 
C460: x13+x36 <=1 
C461: x13+x37-y13_37 <=1 
C462: x13+x39-y13_39 <=1 
C463: x13+x40-y13_40 <=1 
C464: x13+x41-y13_41 <=1 
C465: x13+x42-y13_42 <=1 
C466: x13+x43-y13_43 <=1 
C467: x13+x45-y13_45 <=1 
C468: x13+x47-y13_47 <=1 
C469: x13+x48-y13_48 <=1 
C470: x13+x50 <=1 
C471: x13+x51 <=1 
C472: x13+x53 <=1 
C473: x13+x54 <=1 
C474: x13+x58-y13_58 <=1 
C475: x13+x59-y13_59 <=1 
C476: x13+x61 <=1 
C477: x13+x63 <=1 
C478: x13+x64-y13_64 <=1 
C479: x14+x15-y14_15 <=1 
C480: x14+x17-y14_17 <=1 
C481: x14+x18-y14_18 <=1 
C482: x14+x22-y14_22 <=1 
C483: x14+x23-y14_23 <=1 
C484: x14+x24 <=1 
C485: x14+x25-y14_25 <=1 
C486: x14+x27-y14_27 <=1 
C487: x14+x29-y14_29 <=1 
C488: x14+x32-y14_32 <=1 
C489: x14+x33 <=1 
C490: x14+x37-y14_37 <=1 
C491: x14+x38-y14_38 <=1 
C492: x14+x39 <=1 
C493: x14+x43-y14_43 <=1 
C494: x14+x46-y14_46 <=1 
C495: x14+x50-y14_50 <=1 
C496: x14+x52-y14_52 <=1 
C497: x14+x54-y14_54 <=1 
C498: x14+x57-y14_57 <=1 
C499: x14+x58 <=1 
C500: x14+x59-y14_59 <=1 
C501: x14+x60 <=1 
C502: x14+x61-y14_61 <=1 
C503: x15+x16-y15_16 <=1 
C504: x15+x17 <=1 
C505: x15+x19 <=1 
C506: x15+x21-y15_21 <=1 
C507: x15+x22 <=1 
C508: x15+x24-y15_24 <=1 
C509: x15+x31 <=1 
C510: x15+x33 <=1 
C511: x15+x34 <=1 
C512: x15+x35 <=1 
C513: x15+x36 <=1 
C514: x15+x37-y15_37 <=1 
C515: x15+x38-y15_38 <=1 
C516: x15+x39 <=1 
C517: x15+x41 <=1 
C518: x15+x43 <=1 
C519: x15+x44 <=1 
C520: x15+x45-y15_45 <=1 
C521: x15+x47-y15_47 <=1 
C522: x15+x48-y15_48 <=1 
C523: x15+x50 <=1 
C524: x15+x51 <=1 
C525: x15+x54-y15_54 <=1 
C526: x15+x56 <=1 
C527: x15+x58 <=1 
C528: x15+x59-y15_59 <=1 
C529: x15+x60-y15_60 <=1 
C530: x15+x61-y15_61 <=1 
C531: x15+x62 <=1 
C532: x16+x17 <=1 
C533: x16+x18 <=1 
C534: x16+x20 <=1 
C535: x16+x21 <=1 
C536: x16+x22 <=1 
C537: x16+x23 <=1 
C538: x16+x28-y16_28 <=1 
C539: x16+x30 <=1 
C540: x16+x31-y16_31 <=1 
C541: x16+x32-y16_32 <=1 
C542: x16+x33-y16_33 <=1 
C543: x16+x34 <=1 
C544: x16+x35-y16_35 <=1 
C545: x16+x36-y16_36 <=1 
C546: x16+x38 <=1 
C547: x16+x39-y16_39 <=1 
C548: x16+x42 <=1 
C549: x16+x45 <=1 
C550: x16+x49 <=1 
C551: x16+x53-y16_53 <=1 
C552: x16+x54-y16_54 <=1 
C553: x16+x55 <=1 
C554: x16+x57-y16_57 <=1 
C555: x16+x61 <=1 
C556: x16+x62-y16_62 <=1 
C557: x16+x63 <=1 
C558: x16+x64 <=1 
C559: x17+x18-y17_18 <=1 
C560: x17+x20 <=1 
C561: x17+x22 <=1 
C562: x17+x23 <=1 
C563: x17+x24 <=1 
C564: x17+x25 <=1 
C565: x17+x26 <=1 
C566: x17+x27 <=1 
C567: x17+x29-y17_29 <=1 
C568: x17+x30 <=1 
C569: x17+x32-y17_32 <=1 
C570: x17+x34 <=1 
C571: x17+x35-y17_35 <=1 
C572: x17+x36-y17_36 <=1 
C573: x17+x37-y17_37 <=1 
C574: x17+x38 <=1 
C575: x17+x39 <=1 
C576: x17+x44-y17_44 <=1 
C577: x17+x45-y17_45 <=1 
C578: x17+x46 <=1 
C579: x17+x47-y17_47 <=1 
C580: x17+x49 <=1 
C581: x17+x51 <=1 
C582: x17+x54 <=1 
C583: x17+x58-y17_58 <=1 
C584: x17+x59 <=1 
C585: x17+x60-y17_60 <=1 
C586: x17+x61-y17_61 <=1 
C587: x17+x62-y17_62 <=1 
C588: x17+x64 <=1 
C589: x18+x19-y18_19 <=1 
C590: x18+x21 <=1 
C591: x18+x26-y18_26 <=1 
C592: x18+x29-y18_29 <=1 
C593: x18+x30-y18_30 <=1 
C594: x18+x31-y18_31 <=1 
C595: x18+x32 <=1 
C596: x18+x33 <=1 
C597: x18+x35-y18_35 <=1 
C598: x18+x36-y18_36 <=1 
C599: x18+x37 <=1 
C600: x18+x38 <=1 
C601: x18+x39 <=1 
C602: x18+x40-y18_40 <=1 
C603: x18+x42-y18_42 <=1 
C604: x18+x43-y18_43 <=1 
C605: x18+x44-y18_44 <=1 
C606: x18+x45-y18_45 <=1 
C607: x18+x47 <=1 
C608: x18+x48 <=1 
C609: x18+x50-y18_50 <=1 
C610: x18+x52 <=1 
C611: x18+x53 <=1 
C612: x18+x54 <=1 
C613: x18+x57 <=1 
C614: x18+x59-y18_59 <=1 
C615: x18+x60-y18_60 <=1 
C616: x18+x62-y18_62 <=1 
C617: x18+x63 <=1 
C618: x19+x20-y19_20 <=1 
C619: x19+x21 <=1 
C620: x19+x22 <=1 
C621: x19+x23-y19_23 <=1 
C622: x19+x24-y19_24 <=1 
C623: x19+x25-y19_25 <=1 
C624: x19+x27-y19_27 <=1 
C625: x19+x28 <=1 
C626: x19+x29-y19_29 <=1 
C627: x19+x30 <=1 
C628: x19+x32 <=1 
C629: x19+x34 <=1 
C630: x19+x35-y19_35 <=1 
C631: x19+x38-y19_38 <=1 
C632: x19+x39 <=1 
C633: x19+x40-y19_40 <=1 
C634: x19+x41 <=1 
C635: x19+x43 <=1 
C636: x19+x50 <=1 
C637: x19+x51 <=1 
C638: x19+x54-y19_54 <=1 
C639: x19+x55 <=1 
C640: x19+x56 <=1 
C641: x19+x58-y19_58 <=1 
C642: x19+x60-y19_60 <=1 
C643: x19+x62-y19_62 <=1 
C644: x19+x64-y19_64 <=1 
C645: x20+x21-y20_21 <=1 
C646: x20+x23-y20_23 <=1 
C647: x20+x25 <=1 
C648: x20+x26 <=1 
C649: x20+x28-y20_28 <=1 
C650: x20+x29 <=1 
C651: x20+x30 <=1 
C652: x20+x32 <=1 
C653: x20+x33-y20_33 <=1 
C654: x20+x35 <=1 
C655: x20+x36-y20_36 <=1 
C656: x20+x38-y20_38 <=1 
C657: x20+x40-y20_40 <=1 
C658: x20+x41-y20_41 <=1 
C659: x20+x42 <=1 
C660: x20+x43 <=1 
C661: x20+x44 <=1 
C662: x20+x48 <=1 
C663: x20+x50 <=1 
C664: x20+x51-y20_51 <=1 
C665: x20+x54 <=1 
C666: x20+x56 <=1 
C667: x20+x58-y20_58 <=1 
C668: x20+x59-y20_59 <=1 
C669: x20+x60-y20_60 <=1 
C670: x20+x62-y20_62 <=1 
C671: x20+x64-y20_64 <=1 
C672: x21+x23 <=1 
C673: x21+x24 <=1 
C674: x21+x26-y21_26 <=1 
C675: x21+x28-y21_28 <=1 
C676: x21+x29 <=1 
C677: x21+x30 <=1 
C678: x21+x31 <=1 
C679: x21+x32 <=1 
C680: x21+x34 <=1 
C681: x21+x35 <=1 
C682: x21+x40-y21_40 <=1 
C683: x21+x41 <=1 
C684: x21+x42-y21_42 <=1 
C685: x21+x44-y21_44 <=1 
C686: x21+x46 <=1 
C687: x21+x47 <=1 
C688: x21+x48-y21_48 <=1 
C689: x21+x50 <=1 
C690: x21+x51-y21_51 <=1 
C691: x21+x52-y21_52 <=1 
C692: x21+x54-y21_54 <=1 
C693: x21+x57 <=1 
C694: x21+x59-y21_59 <=1 
C695: x21+x60 <=1 
C696: x21+x61-y21_61 <=1 
C697: x21+x62 <=1 
C698: x21+x63-y21_63 <=1 
C699: x22+x23 <=1 
C700: x22+x24-y22_24 <=1 
C701: x22+x25-y22_25 <=1 
C702: x22+x28 <=1 
C703: x22+x30-y22_30 <=1 
C704: x22+x31-y22_31 <=1 
C705: x22+x33-y22_33 <=1 
C706: x22+x34-y22_34 <=1 
C707: x22+x35-y22_35 <=1 
C708: x22+x36-y22_36 <=1 
C709: x22+x39-y22_39 <=1 
C710: x22+x40-y22_40 <=1 
C711: x22+x42 <=1 
C712: x22+x44-y22_44 <=1 
C713: x22+x46 <=1 
C714: x22+x48 <=1 
C715: x22+x50-y22_50 <=1 
C716: x22+x57 <=1 
C717: x22+x58-y22_58 <=1 
C718: x22+x59 <=1 
C719: x22+x60-y22_60 <=1 
C720: x22+x61 <=1 
C721: x22+x62-y22_62 <=1 
C722: x22+x63 <=1 
C723: x22+x64-y22_64 <=1 
C724: x23+x24-y23_24 <=1 
C725: x23+x25 <=1 
C726: x23+x26 <=1 
C727: x23+x27 <=1 
C728: x23+x28 <=1 
C729: x23+x29-y23_29 <=1 
C730: x23+x34-y23_34 <=1 
C731: x23+x35 <=1 
C732: x23+x37-y23_37 <=1 
C733: x23+x38 <=1 
C734: x23+x40 <=1 
C735: x23+x41-y23_41 <=1 
C736: x23+x43 <=1 
C737: x23+x44-y23_44 <=1 
C738: x23+x46 <=1 
C739: x23+x48 <=1 
C740: x23+x49 <=1 
C741: x23+x51-y23_51 <=1 
C742: x23+x54 <=1 
C743: x23+x55 <=1 
C744: x23+x56-y23_56 <=1 
C745: x23+x57 <=1 
C746: x23+x58-y23_58 <=1 
C747: x23+x59 <=1 
C748: x23+x61-y23_61 <=1 
C749: x23+x62 <=1 
C750: x23+x63-y23_63 <=1 
C751: x23+x64-y23_64 <=1 
C752: x24+x26 <=1 
C753: x24+x27-y24_27 <=1 
C754: x24+x29 <=1 
C755: x24+x30 <=1 
C756: x24+x33 <=1 
C757: x24+x35 <=1 
C758: x24+x37-y24_37 <=1 
C759: x24+x38-y24_38 <=1 
C760: x24+x39-y24_39 <=1 
C761: x24+x40-y24_40 <=1 
C762: x24+x43-y24_43 <=1 
C763: x24+x45-y24_45 <=1 
C764: x24+x47-y24_47 <=1 
C765: x24+x48 <=1 
C766: x24+x49 <=1 
C767: x24+x50-y24_50 <=1 
C768: x24+x51-y24_51 <=1 
C769: x24+x52 <=1 
C770: x24+x53 <=1 
C771: x24+x54-y24_54 <=1 
C772: x24+x56 <=1 
C773: x24+x57 <=1 
C774: x24+x58-y24_58 <=1 
C775: x24+x60 <=1 
C776: x24+x61 <=1 
C777: x24+x62-y24_62 <=1 
C778: x25+x28-y25_28 <=1 
C779: x25+x29-y25_29 <=1 
C780: x25+x30-y25_30 <=1 
C781: x25+x31 <=1 
C782: x25+x32 <=1 
C783: x25+x33-y25_33 <=1 
C784: x25+x34 <=1 
C785: x25+x39 <=1 
C786: x25+x40-y25_40 <=1 
C787: x25+x42 <=1 
C788: x25+x43 <=1 
C789: x25+x44-y25_44 <=1 
C790: x25+x46 <=1 
C791: x25+x47-y25_47 <=1 
C792: x25+x48-y25_48 <=1 
C793: x25+x49-y25_49 <=1 
C794: x25+x50 <=1 
C795: x25+x52 <=1 
C796: x25+x53-y25_53 <=1 
C797: x25+x54 <=1 
C798: x25+x55 <=1 
C799: x25+x57-y25_57 <=1 
C800: x25+x58-y25_58 <=1 
C801: x25+x59 <=1 
C802: x25+x60-y25_60 <=1 
C803: x25+x62-y25_62 <=1 
C804: x25+x63-y25_63 <=1 
C805: x26+x27-y26_27 <=1 
C806: x26+x29 <=1 
C807: x26+x31 <=1 
C808: x26+x34-y26_34 <=1 
C809: x26+x35-y26_35 <=1 
C810: x26+x36-y26_36 <=1 
C811: x26+x37-y26_37 <=1 
C812: x26+x38 <=1 
C813: x26+x40 <=1 
C814: x26+x41-y26_41 <=1 
C815: x26+x43-y26_43 <=1 
C816: x26+x44 <=1 
C817: x26+x45 <=1 
C818: x26+x46 <=1 
C819: x26+x47 <=1 
C820: x26+x48 <=1 
C821: x26+x50-y26_50 <=1 
C822: x26+x51 <=1 
C823: x26+x52 <=1 
C824: x26+x53 <=1 
C825: x26+x56-y26_56 <=1 
C826: x26+x58 <=1 
C827: x26+x59-y26_59 <=1 
C828: x26+x61 <=1 
C829: x26+x62-y26_62 <=1 
C830: x26+x64-y26_64 <=1 
C831: x27+x31-y27_31 <=1 
C832: x27+x32-y27_32 <=1 
C833: x27+x33 <=1 
C834: x27+x34-y27_34 <=1 
C835: x27+x35-y27_35 <=1 
C836: x27+x39-y27_39 <=1 
C837: x27+x40-y27_40 <=1 
C838: x27+x41 <=1 
C839: x27+x42 <=1 
C840: x27+x44 <=1 
C841: x27+x46-y27_46 <=1 
C842: x27+x47-y27_47 <=1 
C843: x27+x50-y27_50 <=1 
C844: x27+x53 <=1 
C845: x27+x54 <=1 
C846: x27+x55-y27_55 <=1 
C847: x27+x56-y27_56 <=1 
C848: x27+x57 <=1 
C849: x27+x58-y27_58 <=1 
C850: x27+x60-y27_60 <=1 
C851: x27+x62-y27_62 <=1 
C852: x27+x64-y27_64 <=1 
C853: x28+x29-y28_29 <=1 
C854: x28+x30-y28_30 <=1 
C855: x28+x32 <=1 
C856: x28+x33-y28_33 <=1 
C857: x28+x34-y28_34 <=1 
C858: x28+x36 <=1 
C859: x28+x37 <=1 
C860: x28+x39 <=1 
C861: x28+x40 <=1 
C862: x28+x42-y28_42 <=1 
C863: x28+x44 <=1 
C864: x28+x45 <=1 
C865: x28+x46 <=1 
C866: x28+x47 <=1 
C867: x28+x48-y28_48 <=1 
C868: x28+x50-y28_50 <=1 
C869: x28+x51 <=1 
C870: x28+x53-y28_53 <=1 
C871: x28+x55-y28_55 <=1 
C872: x28+x56 <=1 
C873: x28+x59 <=1 
C874: x28+x60 <=1 
C875: x28+x61 <=1 
C876: x28+x62-y28_62 <=1 
C877: x29+x32 <=1 
C878: x29+x33-y29_33 <=1 
C879: x29+x34 <=1 
C880: x29+x38 <=1 
C881: x29+x39 <=1 
C882: x29+x40-y29_40 <=1 
C883: x29+x41-y29_41 <=1 
C884: x29+x42 <=1 
C885: x29+x44 <=1 
C886: x29+x45-y29_45 <=1 
C887: x29+x49-y29_49 <=1 
C888: x29+x50 <=1 
C889: x29+x53-y29_53 <=1 
C890: x29+x54 <=1 
C891: x29+x55-y29_55 <=1 
C892: x29+x56 <=1 
C893: x29+x58 <=1 
C894: x29+x59-y29_59 <=1 
C895: x29+x60-y29_60 <=1 
C896: x29+x61-y29_61 <=1 
C897: x29+x62 <=1 
C898: x29+x63 <=1 
C899: x29+x64 <=1 
C900: x30+x31 <=1 
C901: x30+x33 <=1 
C902: x30+x34 <=1 
C903: x30+x37-y30_37 <=1 
C904: x30+x38 <=1 
C905: x30+x39-y30_39 <=1 
C906: x30+x40 <=1 
C907: x30+x41-y30_41 <=1 
C908: x30+x42-y30_42 <=1 
C909: x30+x43 <=1 
C910: x30+x44-y30_44 <=1 
C911: x30+x46-y30_46 <=1 
C912: x30+x47 <=1 
C913: x30+x49-y30_49 <=1 
C914: x30+x50-y30_50 <=1 
C915: x30+x51 <=1 
C916: x30+x53 <=1 
C917: x30+x54-y30_54 <=1 
C918: x30+x57-y30_57 <=1 
C919: x30+x58 <=1 
C920: x30+x59 <=1 
C921: x30+x61 <=1 
C922: x30+x62 <=1 
C923: x30+x64 <=1 
C924: x31+x36-y31_36 <=1 
C925: x31+x37 <=1 
C926: x31+x38-y31_38 <=1 
C927: x31+x39 <=1 
C928: x31+x41 <=1 
C929: x31+x42 <=1 
C930: x31+x43 <=1 
C931: x31+x44 <=1 
C932: x31+x45-y31_45 <=1 
C933: x31+x46 <=1 
C934: x31+x48-y31_48 <=1 
C935: x31+x49 <=1 
C936: x31+x50-y31_50 <=1 
C937: x31+x51-y31_51 <=1 
C938: x31+x52-y31_52 <=1 
C939: x31+x53 <=1 
C940: x31+x58-y31_58 <=1 
C941: x31+x61 <=1 
C942: x31+x62 <=1 
C943: x31+x63 <=1 
C944: x32+x36 <=1 
C945: x32+x39 <=1 
C946: x32+x41 <=1 
C947: x32+x42 <=1 
C948: x32+x45 <=1 
C949: x32+x46-y32_46 <=1 
C950: x32+x48 <=1 
C951: x32+x49 <=1 
C952: x32+x51-y32_51 <=1 
C953: x32+x52-y32_52 <=1 
C954: x32+x53-y32_53 <=1 
C955: x32+x57-y32_57 <=1 
C956: x32+x58-y32_58 <=1 
C957: x32+x60-y32_60 <=1 
C958: x32+x61-y32_61 <=1 
C959: x32+x62 <=1 
C960: x33+x34-y33_34 <=1 
C961: x33+x35 <=1 
C962: x33+x37-y33_37 <=1 
C963: x33+x38-y33_38 <=1 
C964: x33+x40-y33_40 <=1 
C965: x33+x41 <=1 
C966: x33+x42-y33_42 <=1 
C967: x33+x43 <=1 
C968: x33+x45-y33_45 <=1 
C969: x33+x50 <=1 
C970: x33+x51-y33_51 <=1 
C971: x33+x54-y33_54 <=1 
C972: x33+x56 <=1 
C973: x33+x57 <=1 
C974: x33+x59-y33_59 <=1 
C975: x33+x62 <=1 
C976: x33+x63-y33_63 <=1 
C977: x34+x35 <=1 
C978: x34+x37 <=1 
C979: x34+x38-y34_38 <=1 
C980: x34+x39 <=1 
C981: x34+x40 <=1 
C982: x34+x43 <=1 
C983: x34+x44 <=1 
C984: x34+x45 <=1 
C985: x34+x46-y34_46 <=1 
C986: x34+x47-y34_47 <=1 
C987: x34+x48 <=1 
C988: x34+x50 <=1 
C989: x34+x51-y34_51 <=1 
C990: x34+x52 <=1 
C991: x34+x53-y34_53 <=1 
C992: x34+x54-y34_54 <=1 
C993: x34+x56-y34_56 <=1 
C994: x34+x63-y34_63 <=1 
C995: x35+x36 <=1 
C996: x35+x37 <=1 
C997: x35+x39 <=1 
C998: x35+x41-y35_41 <=1 
C999: x35+x42 <=1 
C1000: x35+x44-y35_44 <=1 
C1001: x35+x46-y35_46 <=1 
C1002: x35+x50 <=1 
C1003: x35+x52-y35_52 <=1 
C1004: x35+x53-y35_53 <=1 
C1005: x35+x55 <=1 
C1006: x35+x56-y35_56 <=1 
C1007: x35+x57 <=1 
C1008: x35+x58-y35_58 <=1 
C1009: x35+x60-y35_60 <=1 
C1010: x35+x61 <=1 
C1011: x35+x62-y35_62 <=1 
C1012: x35+x63-y35_63 <=1 
C1013: x35+x64 <=1 
C1014: x36+x37-y36_37 <=1 
C1015: x36+x38 <=1 
C1016: x36+x39-y36_39 <=1 
C1017: x36+x41-y36_41 <=1 
C1018: x36+x42-y36_42 <=1 
C1019: x36+x44 <=1 
C1020: x36+x45-y36_45 <=1 
C1021: x36+x47 <=1 
C1022: x36+x49 <=1 
C1023: x36+x51-y36_51 <=1 
C1024: x36+x52-y36_52 <=1 
C1025: x36+x53-y36_53 <=1 
C1026: x36+x56 <=1 
C1027: x36+x58-y36_58 <=1 
C1028: x36+x60 <=1 
C1029: x36+x61 <=1 
C1030: x36+x62 <=1 
C1031: x36+x64-y36_64 <=1 
C1032: x37+x38 <=1 
C1033: x37+x39-y37_39 <=1 
C1034: x37+x41-y37_41 <=1 
C1035: x37+x42-y37_42 <=1 
C1036: x37+x43-y37_43 <=1 
C1037: x37+x44-y37_44 <=1 
C1038: x37+x47-y37_47 <=1 
C1039: x37+x49-y37_49 <=1 
C1040: x37+x50-y37_50 <=1 
C1041: x37+x52 <=1 
C1042: x37+x53-y37_53 <=1 
C1043: x37+x56 <=1 
C1044: x37+x57-y37_57 <=1 
C1045: x37+x61 <=1 
C1046: x37+x62-y37_62 <=1 
C1047: x37+x63 <=1 
C1048: x37+x64-y37_64 <=1 
C1049: x38+x39 <=1 
C1050: x38+x40-y38_40 <=1 
C1051: x38+x42 <=1 
C1052: x38+x43 <=1 
C1053: x38+x44-y38_44 <=1 
C1054: x38+x47 <=1 
C1055: x38+x48 <=1 
C1056: x38+x50-y38_50 <=1 
C1057: x38+x51-y38_51 <=1 
C1058: x38+x53 <=1 
C1059: x38+x54 <=1 
C1060: x38+x56 <=1 
C1061: x38+x61-y38_61 <=1 
C1062: x38+x62-y38_62 <=1 
C1063: x38+x63 <=1 
C1064: x38+x64 <=1 
C1065: x39+x40 <=1 
C1066: x39+x41-y39_41 <=1 
C1067: x39+x42-y39_42 <=1 
C1068: x39+x43-y39_43 <=1 
C1069: x39+x44 <=1 
C1070: x39+x45 <=1 
C1071: x39+x47 <=1 
C1072: x39+x48 <=1 
C1073: x39+x53 <=1 
C1074: x39+x55-y39_55 <=1 
C1075: x39+x57 <=1 
C1076: x39+x58-y39_58 <=1 
C1077: x39+x59-y39_59 <=1 
C1078: x39+x60-y39_60 <=1 
C1079: x39+x61-y39_61 <=1 
C1080: x39+x62-y39_62 <=1 
C1081: x40+x42 <=1 
C1082: x40+x43-y40_43 <=1 
C1083: x40+x44 <=1 
C1084: x40+x45-y40_45 <=1 
C1085: x40+x46 <=1 
C1086: x40+x47 <=1 
C1087: x40+x52-y40_52 <=1 
C1088: x40+x53-y40_53 <=1 
C1089: x40+x56 <=1 
C1090: x40+x62-y40_62 <=1 
C1091: x40+x63-y40_63 <=1 
C1092: x41+x42 <=1 
C1093: x41+x45 <=1 
C1094: x41+x47 <=1 
C1095: x41+x50-y41_50 <=1 
C1096: x41+x52-y41_52 <=1 
C1097: x41+x54-y41_54 <=1 
C1098: x41+x55-y41_55 <=1 
C1099: x41+x56 <=1 
C1100: x41+x58-y41_58 <=1 
C1101: x41+x59-y41_59 <=1 
C1102: x41+x60 <=1 
C1103: x41+x62 <=1 
C1104: x42+x43-y42_43 <=1 
C1105: x42+x44-y42_44 <=1 
C1106: x42+x46 <=1 
C1107: x42+x47 <=1 
C1108: x42+x48-y42_48 <=1 
C1109: x42+x49 <=1 
C1110: x42+x50 <=1 
C1111: x42+x54-y42_54 <=1 
C1112: x42+x55 <=1 
C1113: x42+x56 <=1 
C1114: x42+x58 <=1 
C1115: x42+x61 <=1 
C1116: x42+x63 <=1 
C1117: x42+x64 <=1 
C1118: x43+x45-y43_45 <=1 
C1119: x43+x47-y43_47 <=1 
C1120: x43+x48 <=1 
C1121: x43+x49 <=1 
C1122: x43+x53-y43_53 <=1 
C1123: x43+x54-y43_54 <=1 
C1124: x43+x56-y43_56 <=1 
C1125: x43+x58-y43_58 <=1 
C1126: x43+x60 <=1 
C1127: x43+x61-y43_61 <=1 
C1128: x43+x62 <=1 
C1129: x43+x63 <=1 
C1130: x43+x64-y43_64 <=1 
C1131: x44+x47-y44_47 <=1 
C1132: x44+x49 <=1 
C1133: x44+x50 <=1 
C1134: x44+x53 <=1 
C1135: x44+x56 <=1 
C1136: x44+x57 <=1 
C1137: x44+x58 <=1 
C1138: x44+x63-y44_63 <=1 
C1139: x44+x64-y44_64 <=1 
C1140: x45+x46-y45_46 <=1 
C1141: x45+x48 <=1 
C1142: x45+x49-y45_49 <=1 
C1143: x45+x51-y45_51 <=1 
C1144: x45+x55-y45_55 <=1 
C1145: x45+x57 <=1 
C1146: x45+x58 <=1 
C1147: x45+x59-y45_59 <=1 
C1148: x45+x60 <=1 
C1149: x45+x61-y45_61 <=1 
C1150: x45+x62-y45_62 <=1 
C1151: x45+x64 <=1 
C1152: x46+x47-y46_47 <=1 
C1153: x46+x48 <=1 
C1154: x46+x53-y46_53 <=1 
C1155: x46+x54-y46_54 <=1 
C1156: x46+x57 <=1 
C1157: x46+x59-y46_59 <=1 
C1158: x46+x63-y46_63 <=1 
C1159: x46+x64 <=1 
C1160: x47+x51-y47_51 <=1 
C1161: x47+x52-y47_52 <=1 
C1162: x47+x54 <=1 
C1163: x47+x60 <=1 
C1164: x47+x62 <=1 
C1165: x47+x63 <=1 
C1166: x48+x50 <=1 
C1167: x48+x51 <=1 
C1168: x48+x53-y48_53 <=1 
C1169: x48+x56-y48_56 <=1 
C1170: x48+x58 <=1 
C1171: x48+x59 <=1 
C1172: x48+x60-y48_60 <=1 
C1173: x48+x61 <=1 
C1174: x48+x63 <=1 
C1175: x49+x51 <=1 
C1176: x49+x52 <=1 
C1177: x49+x55-y49_55 <=1 
C1178: x49+x56 <=1 
C1179: x49+x57-y49_57 <=1 
C1180: x49+x58-y49_58 <=1 
C1181: x49+x59-y49_59 <=1 
C1182: x49+x62-y49_62 <=1 
C1183: x49+x63 <=1 
C1184: x49+x64 <=1 
C1185: x50+x51-y50_51 <=1 
C1186: x50+x52-y50_52 <=1 
C1187: x50+x55 <=1 
C1188: x50+x58-y50_58 <=1 
C1189: x50+x60 <=1 
C1190: x50+x61 <=1 
C1191: x50+x62 <=1 
C1192: x50+x63-y50_63 <=1 
C1193: x50+x64-y50_64 <=1 
C1194: x51+x52 <=1 
C1195: x51+x55-y51_55 <=1 
C1196: x51+x58 <=1 
C1197: x51+x59 <=1 
C1198: x51+x64-y51_64 <=1 
C1199: x52+x58-y52_58 <=1 
C1200: x52+x59 <=1 
C1201: x52+x60-y52_60 <=1 
C1202: x52+x61 <=1 
C1203: x52+x62-y52_62 <=1 
C1204: x53+x57 <=1 
C1205: x53+x60 <=1 
C1206: x53+x61 <=1 
C1207: x53+x63 <=1 
C1208: x53+x64 <=1 
C1209: x54+x57 <=1 
C1210: x54+x58 <=1 
C1211: x54+x59 <=1 
C1212: x54+x62 <=1 
C1213: x54+x63-y54_63 <=1 
C1214: x55+x58-y55_58 <=1 
C1215: x55+x60 <=1 
C1216: x55+x61-y55_61 <=1 
C1217: x55+x62-y55_62 <=1 
C1218: x55+x64 <=1 
C1219: x56+x57 <=1 
C1220: x56+x62 <=1 
C1221: x56+x64 <=1 
C1222: x57+x59 <=1 
C1223: x57+x60-y57_60 <=1 
C1224: x57+x63 <=1 
C1225: x58+x59-y58_59 <=1 
C1226: x58+x60 <=1 
C1227: x58+x62 <=1 
C1228: x58+x63 <=1 
C1229: x59+x60 <=1 
C1230: x59+x61-y59_61 <=1 
C1231: x59+x62-y59_62 <=1 
C1232: x60+x61 <=1 
C1233: x61+x62-y61_62 <=1 
C1234: x61+x63 <=1 

binary
x0
x1
x2
x3
x4
x5
x6
x7
x8
x9
x10
x11
x12
x13
x14
x15
x16
x17
x18
x19
x20
x21
x22
x23
x24
x25
x26
x27
x28
x29
x30
x31
x32
x33
x34
x35
x36
x37
x38
x39
x40
x41
x42
x43
x44
x45
x46
x47
x48
x49
x50
x51
x52
x53
x54
x55
x56
x57
x58
x59
x60
x61
x62
x63
x64
